50
100009 100075 100063 100062 100070 100086 100003 100019 100047 100070 100050 100051 100031 100024 100088 100099 100050 100047 100012 100060 100021 100063 100028 100047 100087 100031 100054 100032 100049 100087 100049 100097 100041 100045 100065 100050 100067 100029 100001 100042 100006 100025 100060 100069 100091 100068 100056 100034 100048 100029 
324 621 9 983 823 1000 264 200 55 194 25 692 366 816 761 350 167 348 31 649 190 149 889 438 947 981 664 250 148 247 737 512 298 18 352 393 70 250 296 416 494 566 850 295 95 304 217 576 477 322 
2476478
